
******************************************************************************
This program contains Ipopt, a library for large-scale nonlinear optimization.
 Ipopt is released as open source code under the Eclipse Public License (EPL).
         For more information visit http://projects.coin-or.org/Ipopt
******************************************************************************

This is Ipopt version 3.12.6, running with linear solver ma57.

Number of nonzeros in equality constraint Jacobian...:    26656
Number of nonzeros in inequality constraint Jacobian.:        0
Number of nonzeros in Lagrangian Hessian.............:    16662

Total number of variables............................:     9998
                     variables with only lower bounds:        0
                variables with lower and upper bounds:        0
                     variables with only upper bounds:        0
Total number of equality constraints.................:     6664
Total number of inequality constraints...............:        0
        inequality constraints with only lower bounds:        0
   inequality constraints with lower and upper bounds:        0
        inequality constraints with only upper bounds:        0

iter    objective    inf_pr   inf_du lg(mu)  ||d||  lg(rg) alpha_du alpha_pr  ls
   0  2.7988800e+05 4.30e+01 4.80e+01  -1.0 0.00e+00    -  0.00e+00 0.00e+00   0
   1  7.9933091e+04 1.02e+01 4.84e+01  -1.0 5.33e+00  -4.0 1.00e+00 1.00e+00f  1
   2  1.1695397e+05 2.60e+01 3.60e+03  -1.0 1.22e+01  -4.5 1.00e+00 1.00e+00h  1
   3  3.3230244e+05 3.69e+02 4.24e+04  -1.0 1.24e+02  -5.0 1.00e+00 1.00e+00h  1
   4  1.3432859e+05 5.22e+01 1.57e+04  -1.0 1.13e+02  -5.4 1.00e+00 1.00e+00f  1
   5  1.0675260e+05 1.96e+01 5.01e+03  -1.0 4.51e+00  -5.9 1.00e+00 1.00e+00f  1
   6  9.3118333e+04 5.85e+00 9.03e+02  -1.0 5.75e+00  -6.4 1.00e+00 1.00e+00f  1
   7  9.1967524e+04 1.21e+00 2.29e+02  -1.0 2.93e+00  -6.9 1.00e+00 1.00e+00f  1
   8  9.1745804e+04 7.21e-01 7.97e+01  -1.0 1.42e+00  -7.3 1.00e+00 1.00e+00f  1
   9  9.1673633e+04 6.07e-01 3.87e+01  -1.0 8.11e-01  -7.8 1.00e+00 1.00e+00f  1
iter    objective    inf_pr   inf_du lg(mu)  ||d||  lg(rg) alpha_du alpha_pr  ls
  10  9.1644833e+04 5.38e+00 5.36e+01  -1.0 2.32e+00  -8.3 1.00e+00 1.00e+00f  1
  11  9.1572798e+04 1.36e-01 1.00e+01  -1.0 2.54e+00  -8.8 1.00e+00 1.00e+00f  1
  12  9.1571701e+04 8.63e-03 6.77e-01  -1.0 9.29e-02  -9.2 1.00e+00 1.00e+00f  1
  13  9.1571572e+04 5.12e-05 3.80e-03  -1.7 7.16e-03  -9.7 1.00e+00 1.00e+00h  1
  14  9.1571571e+04 1.70e-09 1.29e-06  -3.8 3.43e-03 -10.2 1.00e+00 1.00e+00h  1
  15  9.1571571e+04 3.55e-15 3.81e-07  -8.6 2.28e-03 -10.7 1.00e+00 1.00e+00h  1
  16  9.1571571e+04 3.55e-15 1.13e-07  -8.6 1.52e-03 -11.2 1.00e+00 1.00e+00h  1
  17  9.1571571e+04 4.00e-15 3.35e-08  -8.6 1.01e-03 -11.6 1.00e+00 1.00e+00h  1
  18  9.1571571e+04 3.55e-15 9.91e-09  -8.6 6.77e-04 -12.1 1.00e+00 1.00e+00h  1

Number of Iterations....: 18

                                   (scaled)                 (unscaled)
Objective...............:   9.1571571233710420e+04    9.1571571233710420e+04
Dual infeasibility......:   9.9137234625664177e-09    9.9137234625664177e-09
Constraint violation....:   3.5527136788005009e-15    3.5527136788005009e-15
Complementarity.........:   0.0000000000000000e+00    0.0000000000000000e+00
Overall NLP error.......:   9.9137234625664177e-09    9.9137234625664177e-09


Number of objective function evaluations             = 19
Number of objective gradient evaluations             = 19
Number of equality constraint evaluations            = 19
Number of inequality constraint evaluations          = 0
Number of equality constraint Jacobian evaluations   = 19
Number of inequality constraint Jacobian evaluations = 0
Number of Lagrangian Hessian evaluations             = 18
Total CPU secs in IPOPT (w/o function evaluations)   =      0.103
Total CPU secs in NLP function evaluations           =      0.060

EXIT: Optimal Solution Found.
Note: The following floating-point exceptions are signalling: IEEE_UNDERFLOW_FLAG IEEE_DENORMAL

************************ CUTEst statistics ************************


 Package used            :  IPOPT
 Problem                 :  LUKVLE13  
 # variables             =            9998
 # constraints           =            6664
 # objective functions   =        0.3900000E+02
 # objective gradients   =        0.2000000E+02
 # objective Hessians    =        0.1900000E+02
 # Hessian-vector prdct  =        0.0000000E+00
 # constraints functions =        0.4000000E+02
 # constraints gradients =        0.2100000E+02
 # constraints Hessians  =        0.1900000E+02
 Exit code               =               0
 Final f                 =   0.9157157E+05
 Set up time             =            0.23 seconds
 Solve time              =            0.23 seconds


******************************************************************

System Time =       0.1679999977 s.
